nbNodes = 12;
nbVehi = 3;
nbServi = 4;

e = 
 [ 0, 388, 436, 104, 220, 70, 328, 398, 446, 177,  359,    0,];

l = 
 [480, 480, 520, 166, 320, 151, 407, 504, 519, 244, 459, 480,];

a = 
 [|  1,  0,  1,  1,
  |  0,  1,  0,  1,
  |  0,  0,  1,  0,
  |];

p = array3d(1..nbNodes,1..nbVehi,1..nbServi,
[  0,  0,  0,  0,	  0,  0,  0,  0,	  0,  0,  0,  0,	
 26, 15, 66, 40,	 12, 68, 53, 38,	 68, 10, 61, 64,	
 35, 38, 70, 41,	 15, 69, 41, 43,	 33, 57, 57, 64,	
 55, 42, 62, 37,	 58, 51, 62, 17,	 40, 53, 19, 55,	
 60, 58, 57, 63,	 31, 40, 29, 40,	 20, 43, 49, 21,	
 48, 28, 14, 62,	 62, 49, 62, 47,	 17, 62, 10, 62,	
 33, 37, 13, 19,	 52, 27, 15, 63,	 50, 57, 19, 27,	
 48, 16, 12, 58,	 60, 53, 54, 14,	 45, 12, 21, 60,	
 24, 63, 27, 45,	 18, 12, 57, 44,	 34, 64, 22, 61,	
 27, 63, 22, 47,	 25, 55, 26, 15,	 31, 39, 18, 15,	
 47, 39, 36, 34,	 40, 29, 46, 20,	 22, 42, 39, 64,	
  0,  0,  0,  0,	  0,  0,  0,  0,	  0,  0,  0,  0,	
]);

rs = 
[|  true,  true,  true,  true,	 	
|  false,  false,  true,  false,	  	
|  true,  false,  false,  false,	  	
|  false,  false,  false,  true,	  	
|  false,  false,  false,  true,	  	
|  true,  false,  false,  false,	  	
|  true,  false,  false,  false,	  	
|  false,  false,  false,  true,	  	
|  false,  true,  false,  false,	  	
|  false,  true,  false,  false,	  	
|  false,  false,  true,  false,	  	
|  true,  true,  true,  true,	  	
|];

d=[|0, 24, 2, 25, 10, 3, 13, 25, 3, 11, 2, 0, 
   |24, 0, 24, 24, 34, 21, 36, 33, 27, 31, 23, 24, 
   |10, 24, 0, 0, 10, 3, 13, 25, 3, 11, 2, 10, 
   |20, 24, 0, 0, 10, 3, 13, 25, 3, 11, 2, 20, 
   |10, 34, 10, 10, 0, 13, 7, 26, 7, 12, 11, 10, 
   |3, 21, 3, 3, 13, 0, 15, 26, 6, 12, 4, 3, 
   |13, 36, 13, 13, 7, 15, 0, 34, 10, 6, 15, 13, 
   |25, 33, 25, 25, 26, 26, 34, 0, 26, 36, 23, 25, 
   |3, 27, 3, 3, 7, 6, 10, 26, 0, 9, 5, 3, 
   |11, 31, 11, 11, 12, 12, 6, 36, 9, 0, 13, 11, 
   |2, 23, 2, 2, 11, 4, 15, 23, 5, 13, 0, 2, 
   |50, 24, 2, 25, 10, 3, 13, 25, 3, 11, 2, 0, 
   |];
